max_width = 39;
n_blocks = 29;
width = [15, 5, 5, 5, 5, 5, 5, 5, 5, 5, 4, 4, 4, 4, 4, 4, 4, 4, 4, 3, 3, 3, 3, 3, 3, 3, 3, 3, 3];
height = [39, 18, 13, 11, 10, 8, 6, 5, 4, 3, 16, 15, 12, 9, 8, 6, 5, 4, 3, 15, 11, 10, 9, 8, 7, 6, 5, 4, 3];
